p cnf 50 50
37 47 37 0
-26 -15 50 0
-5 18 39 0
45 9 -33 0
-43 -34 39 0
-13 -24 44 0
-1 1 -38 0
-7 40 27 0
23 -39 -15 0
-13 -20 -17 0
45 -50 -50 0
-36 -38 32 0
-31 -25 18 0
26 13 4 0
31 -39 22 0
-33 -1 -33 0
-8 24 -35 0
-43 12 25 0
8 -5 40 0
-17 -29 -5 0
-36 25 -12 0
-41 5 50 0
-39 7 9 0
-41 41 13 0
-8 12 -30 0
20 -25 -21 0
49 -35 -45 0
-6 11 14 0
46 -49 -40 0
-39 -39 41 0
35 12 1 0
-29 -18 -44 0
-48 5 7 0
34 42 -7 0
39 -5 -9 0
-40 -4 49 0
41 30 35 0
47 -9 33 0
35 35 -24 0
-10 -39 30 0
47 -3 49 0
-21 -10 -32 0
-5 -41 47 0
-39 -31 38 0
9 10 -47 0
-24 48 -1 0
1 17 20 0
35 49 26 0
15 23 7 0
30 30 -49 0
